&control
  calculation = 'scf'
  verbosity = 'high'
  prefix = 'anatase001'
  restart_mode='from_scratch'
  outdir = './pwfiles'
  pseudo_dir = '/opt/pseudo'
/

&system
  ibrav = 0
  ntyp = 3
  nat = 56
  ecutwfc = 30.
  occupations = 'smearing'
/

&electrons
  mixing_beta = 0.3
  electron_maxstep=300
  conv_thr=1.d-6
  diagonalization='davidson'
/

ATOMIC_SPECIES
  C  0.00  C.vbc.UPF
  N  0.00  N.vbc.UPF
  H  0.00  H.vbc.UPF

ATOMIC_POSITIONS bohr
C  -1.33296  -12.38296  0.00000
C   1.33119  -12.38330  0.00000
C   2.69533  -10.12423  0.00000
C   1.33017  -7.86735  0.00000
C  -1.33117  -7.86692  0.00000
C  -2.69670  -10.12367  0.00000
C  -2.11665  -5.23429  0.00000
C   2.11615  -5.23462  0.00000
C  -5.23536  -2.11567  0.00000
C  -7.86802  -1.32992  0.00000
C  -7.86809  1.33145  0.00000
C  -5.23526  2.11675  0.00000
C  -10.12503  -2.69511  0.00000
C  -10.12504  2.69666  0.00000
C  -12.38405  -1.33147  0.00000
C  -12.38406  1.33303  0.00000
C  -2.11591  5.23462  0.00000
C  -1.33015  7.86729  0.00000
C   2.11689  5.23429  0.00000
C   1.33119  7.86698  0.00000
C  -2.69524  10.12425  0.00000
C  -1.33106  12.38330  0.00000
C   1.33308  12.38295  0.00000
C   2.69679  10.12365  0.00000
C   5.23553  -2.11668  0.00000
C   7.86824  -1.33150  0.00000
C   5.23564  2.11561  0.00000
C   7.86818  1.32997  0.00000
C  10.12528  -2.69671  0.00000
C  12.38418  -1.33311  0.00000
C  12.38418  1.33155  0.00000
C  10.12529  2.69516  0.00000
N  -0.00053  -3.67097  0.00000
N  -4.52109  -4.52009  0.00000
N   4.51981  -4.52048  0.00000
N  -3.67184  0.00039  0.00000
N  -4.52007  4.52060  0.00000
N   0.00017  3.67097  0.00000
N   4.52084  4.51998  0.00000
N   3.67221  -0.00038  0.00000
H  -4.73926  -10.10429  0.00000
H  -2.33253  -14.16704  0.00000
H   2.33048  -14.16754  0.00000
H   4.73790  -10.10548  0.00000
H  10.10541  4.73780  0.00000
H  14.16891  2.32988  0.00000
H  14.16886  -2.33155  0.00000
H  10.10584  -4.73937  0.00000
H   4.73934  10.10421  0.00000
H   2.33255  14.16710  0.00000
H  -2.33045  14.16747  0.00000
H  -4.73783  10.10552  0.00000
H  -10.10582  4.73930  0.00000
H  -10.10538  -4.73774  0.00000
H  -14.16859  -2.33016  0.00000
H  -14.16855  2.33181  0.00000

K_POINTS Gamma

CELL_PARAMETERS
 35.0   0.0   0.0
  0.0  35.0   0.0
  0.0   0.0  10.0

