&control
  calculation = 'scf'
  verbosity = 'high'
  prefix = 'anatase001'
  restart_mode='from_scratch'
  outdir = './pwfiles'
  pseudo_dir = '/opt/pseudo'
/

&system
  ibrav = 0
  ntyp = 2
  nat = 5
  ecutwfc = 30.
/

&electrons
  mixing_beta = 0.3
  electron_maxstep=300
  conv_thr=1.d-6
  diagonalization='davidson'
/

ATOMIC_SPECIES
  Si  0.00  Si.vbc.UPF
  H   0.00  H.vbc.UPF

ATOMIC_POSITIONS bohr
H    1.61    1.61    1.61
H   -1.61   -1.61    1.61
H    1.61   -1.61   -1.61
H   -1.61    1.61   -1.61
Si   0.0     0.0     0.0

K_POINTS Gamma

CELL_PARAMETERS
 10.0    0.0    0.0
  0.0   10.0    0.0
  0.0    0.0   10.0

