&control
  calculation = 'scf'
  verbosity = 'high'
  prefix = 'anatase001'
  restart_mode='from_scratch'
  outdir = './pwfiles'
  pseudo_dir = '/opt/pseudo'
/

&system
  ibrav = 0
  ntyp = 2
  nat = 27
  ecutwfc = 30.
/

&electrons
  mixing_beta = 0.3
  electron_maxstep=300
  conv_thr=1.d-6
  diagonalization='davidson'
/

ATOMIC_SPECIES
  C   0.00   C.vbc.UPF
  H   0.00   H.vbc.UPF

ATOMIC_POSITIONS angstrom
C         -1.23500        0.42850        0.17370
C         -0.00980       -0.48490        0.09450
C         -2.52780       -0.35900       -0.05100
C          1.31730        0.25750        0.29000
C         -3.75090        0.55690       -0.01110
C          2.57910       -0.59830        0.13650
C         -5.03450       -0.21680       -0.26660
C          3.84690        0.19140        0.27830
C          4.81470        0.22470       -0.64430
H         -1.26530        0.91820        1.15440
H         -1.14950        1.21950       -0.58100
H         -0.09140       -1.27410        0.85200
H          0.00470       -0.98390       -0.88240
H         -2.62390       -1.13650        0.71660
H         -2.48320       -0.86740       -1.02190
H          1.31690        0.72220        1.28480
H          1.36280        1.08250       -0.43350
H         -3.65150        1.34500       -0.76660
H         -3.81480        1.05000        0.96580
H          2.55120       -1.10780       -0.83460
H          2.57360       -1.38270        0.90290
H         -5.01560       -0.69410       -1.25150
H         -5.89630        0.45700       -0.23220
H         -5.18080       -0.99450        0.48970
H          3.98520        0.75300        1.19860
H          5.71270        0.80930       -0.47700
H          4.73080       -0.32460       -1.57540

K_POINTS Gamma

CELL_PARAMETERS
 30.0    0.0    0.0
  0.0   10.0    0.0
  0.0    0.0   10.0

