&control
  calculation = 'scf'
  verbosity = 'high'
  prefix = 'anatase001'
  restart_mode='from_scratch'
  outdir = './pwfiles'
  pseudo_dir = '/opt/pseudo'
/

&system
  ibrav = 0
  ntyp = 2
  nat = 3
  ecutwfc = 30.
/

&electrons
  mixing_beta = 0.3
  electron_maxstep=300
  conv_thr=1.d-6
  diagonalization='davidson'
/

ATOMIC_SPECIES
  C   0.00   C.vbc.UPF
  O   0.00  O.vbc.UPF

ATOMIC_POSITIONS bohr
C  5.0  5.0  5.0
O  2.7597  5.0  5.0
O  7.2403  5.0  5.0

K_POINTS Gamma

CELL_PARAMETERS
 10.0    0.0    0.0
  0.0   10.0    0.0
  0.0    0.0   10.0

