&control
  calculation = 'scf'
  verbosity = 'high'
  prefix = 'anatase001'
  restart_mode='from_scratch'
  outdir = './pwfiles'
  pseudo_dir = '/opt/pseudo'
/

&system
  ibrav = 0
  ntyp = 2
  nat = 5
  ecutwfc = 30.
/

&electrons
  mixing_beta = 0.3
  electron_maxstep=300
  conv_thr=1.d-6
  diagonalization='davidson'
/

ATOMIC_SPECIES
  C   0.00  C.vbc.UPF
  H   0.00  H.vbc.UPF

ATOMIC_POSITIONS bohr
C   0.000 0.000 0.000
H   0.0000  0.0000  2.0664
H  -0.9741 -1.6872 -0.6888
H  -0.9741  1.6872 -0.6888
H   1.9482  0.0000 -0.6888

K_POINTS Gamma

CELL_PARAMETERS
 10.0    0.0    0.0
  0.0   10.0    0.0
  0.0    0.0   10.0

