&control
  calculation = 'scf'
  verbosity = 'high'
  prefix = 'anatase001'
  restart_mode='from_scratch'
  outdir = './pwfiles'
  pseudo_dir = '/opt/pseudo'
/

&system
  ibrav = 0
  ntyp = 1
  nat = 8
  ecutwfc = 30.
  occupations = 'smearing'
/

&electrons
  mixing_beta = 0.3
  electron_maxstep=300
  conv_thr=1.d-6
  diagonalization='davidson'
/

ATOMIC_SPECIES
  Si  0.00  Si.vbc.UPF

ATOMIC_POSITIONS bohr
Si  0.000000000       0.000000000       0.000000000
Si  0.000000000       5.133000000       5.133000000
Si  5.133000000       0.000000000       5.133000000
Si  5.133000000       5.133000000       0.000000000
Si  2.566500000       2.566500000       2.566500000
Si  7.699500000       2.566500000       7.699500000
Si  2.566500000       7.699500000       7.699500000
Si  7.699500000       7.699500000       2.566500000

K_POINTS Gamma

CELL_PARAMETERS
 10.266  0.0    0.0
  0.0   10.266  0.0
  0.0    0.0   10.266

