&control
  calculation = 'scf'
  verbosity = 'high'
  prefix = 'anatase001'
  restart_mode='from_scratch'
  outdir = './pwfiles'
  pseudo_dir = '/opt/pseudo'
/

&system
  ibrav = 0
  ntyp = 4
  nat = 13
  ecutwfc = 30.
/

&electrons
  mixing_beta = 0.3
  electron_maxstep=300
  conv_thr=1.d-6
  diagonalization='davidson'
/

ATOMIC_SPECIES
  C   0.00   C.vbc.UPF
  N   0.00   N.vbc.UPF
  H   0.00   H.vbc.UPF
  O   0.00   O.vbc.UPF

ATOMIC_POSITIONS angstrom
O          1.45730       -1.04380        0.26820
O          1.24920        1.11650       -0.40470
N         -1.41050        1.15070        0.18210
C         -0.70850       -0.11360        0.39370
C         -1.33450       -1.20000       -0.47020
C          0.74700        0.09030        0.03080
H         -0.76660       -0.37370        1.45580
H         -0.85800       -2.16950       -0.28780
H         -2.40230       -1.31270       -0.25210
H         -1.22480       -0.97970       -1.53840
H         -2.39160        1.04200        0.43760
H         -1.40710        1.38750       -0.80990
H          2.40620       -0.93410        0.04470

K_POINTS Gamma

CELL_PARAMETERS
 15.0    0.0    0.0
  0.0   15.0    0.0
  0.0    0.0   15.0

