&control
  calculation = 'scf'
  verbosity = 'high'
  prefix = 'anatase001'
  restart_mode='from_scratch'
  outdir = './pwfiles'
  pseudo_dir = '/opt/pseudo'
/

&system
  ibrav = 0
  ntyp = 2
  nat = 54
  ecutwfc = 30.
/

&electrons
  mixing_beta = 0.3
  electron_maxstep=300
  conv_thr=1.d-6
  diagonalization='davidson'
/

ATOMIC_SPECIES
  Ti   0.00   Ti.vbc.UPF
  O    0.00   O.vbc.UPF

ATOMIC_POSITIONS bohr
Ti  3.19113     0.00000  1.51028
Ti  3.19113     6.38207  1.51024
Ti  3.19113    12.76433  1.51024
Ti  9.57320     0.00000  1.51033
Ti  9.57320     6.38207  1.51026
Ti  9.57320    12.76433  1.51026
Ti  15.95527    0.00000  1.51028
Ti  15.95527    6.38207  1.51024
Ti  15.95527   12.76433  1.51024
Ti  3.19113     3.19113  6.90060
Ti  3.19113     9.57320  6.90050
Ti  3.19113    15.95527  6.90060
Ti  9.57320     3.19113  6.90077
Ti  9.57320     9.57320  6.90063
Ti  9.57320    15.95527  6.90077
Ti  15.95527    3.19113  6.90060
Ti  15.95527    9.57320  6.90050
Ti  15.95527   15.95527  6.90060
O   0.00000     0.00000  0.00000
O   0.00000     6.38207  0.00000
O   0.00000    12.76433  0.00000
O   6.38207     0.00000  0.00000
O   6.38207     6.38207  0.00000
O   6.38207    12.76433  0.00000
O   12.76433    0.00000  0.00000
O   12.76433    6.38207  0.00000
O   12.76433   12.76433  0.00000
O   3.19113     3.19113  2.84247
O   3.19113     9.57320  2.84242
O   3.19113    15.95527  2.84247
O   9.57320     3.19113  2.84251
O   9.57320     9.57320  2.84239
O   9.57320    15.95527  2.84251
O   15.95527    3.19113  2.84247
O   15.95527    9.57320  2.84242
O   15.95527   15.95527  2.84247
O   3.19113     0.00000  5.56934
O   3.19113     6.38207  5.56921
O   3.19113    12.76433  5.56921
O   9.57320     0.00000  5.56951
O   9.57320     6.38207  5.56930
O   9.57320    12.76433  5.56930
O   15.95527    0.00000  5.56934
O   15.95527    6.38207  5.56921
O   15.95527   12.76433  5.56921
O   0.00000     3.19113  8.41214
O   0.00000     9.57320  8.41211
O   0.00000    15.95527  8.41214
O   6.38207     3.19113  8.41233
O   6.38207     9.57320  8.41226
O   6.38207    15.95527  8.41233
O   12.76433    3.19113  8.41233
O   12.76433    9.57320  8.41226
O   12.76433   15.95527  8.41233

K_POINTS Gamma

CELL_PARAMETERS
  19.1464   0.0000    0.0000
   0.0000  19.1464    0.0000
   0.0000   0.0000   40.0000

