&control
  calculation = 'scf'
  verbosity = 'high'
  prefix = 'anatase001'
  restart_mode='from_scratch'
  outdir = './pwfiles'
  pseudo_dir = '/opt/pseudo'
/

&system
  ibrav = 0
  ntyp = 1
  nat = 36
  ecutwfc = 30.
/

&electrons
  mixing_beta = 0.3
  electron_maxstep=300
  conv_thr=1.d-6
  diagonalization='davidson'
/

ATOMIC_SPECIES
  C   0.00  C.vbc.UPF

ATOMIC_POSITIONS bohr
C       9.6566905482      12.7857413233       5.8117000000
C       6.4793748582      12.7857413233       9.5982765595
C       3.8892047259      12.7857413233       9.1415601134
C       2.1985903592      12.7857413233       4.4966357278
C       3.8892047259      12.7857413233       2.4818398866
C       8.7571347826      12.7857413233       3.3401877127
C       9.4248096408      10.4610607940       7.1267642722
C       7.7341952741      10.4610607940       9.1415601134
C       2.8662652174      10.4610607940       8.2832122873
C       1.9667094518      10.4610607940       5.8117000000
C       5.1440251418      10.4610607940       2.0251234405
C       7.7341952741      10.4610607940       2.4818398866
C       9.6566905482       8.1363802647       5.8117000000
C       6.4793748582       8.1363802647       9.5982765595
C       3.8892047259       8.1363802647       9.1415601134
C       2.1985903592       8.1363802647       4.4966357278
C       3.8892047259       8.1363802647       2.4818398866
C       8.7571347826       8.1363802647       3.3401877127
C       9.4248096408       5.8116997353       7.1267642722
C       7.7341952741       5.8116997353       9.1415601134
C       2.8662652174       5.8116997353       8.2832122873
C       1.9667094518       5.8116997353       5.8117000000
C       5.1440251418       5.8116997353       2.0251234405
C       7.7341952741       5.8116997353       2.4818398866
C       9.6566905482       3.4870192060       5.8117000000
C       6.4793748582       3.4870192060       9.5982765595
C       3.8892047259       3.4870192060       9.1415601134
C       2.1985903592       3.4870192060       4.4966357278
C       3.8892047259       3.4870192060       2.4818398866
C       8.7571347826       3.4870192060       3.3401877127
C       9.4248096408       1.1623386767       7.1267642722
C       7.7341952741       1.1623386767       9.1415601134
C       2.8662652174       1.1623386767       8.2832122873
C       1.9667094518       1.1623386767       5.8117000000
C       5.1440251418       1.1623386767       2.0251234405
C       7.7341952741       1.1623386767       2.4818398866

K_POINTS Gamma

CELL_PARAMETERS
 11.62340   0.00000   0.0000
  0.00000  13.94808   0.0000
  0.00000   0.00000  11.6234

